NAME : cluster_netgen
COMMENT : cl=8
TYPE : TSP
DIMENSION : 50
EDGE_WEIGHT_TYPE : EUC_2D
NODE_COORD_SECTION
1 167911 752397
2 100248 714859
3 38626 843301
4 144368 710379
5 212370 637125
6 133636 735142
7 573572 87089
8 505231 19643
9 574918 51041
10 485901 45464
11 440781 19969
12 462355 90188
13 466350 580196
14 319207 414377
15 302521 475512
16 395759 579328
17 387480 341163
18 356158 573902
19 740781 503787
20 779461 571405
21 730014 529603
22 734840 551192
23 760522 587913
24 807456 577603
25 453342 709619
26 420454 732676
27 474966 638607
28 355507 794537
29 461489 825679
30 448522 804770
31 808766 204763
32 813562 303260
33 764256 273155
34 749320 332417
35 753393 124312
36 671181 305371
37 655551 306726
38 798419 262353
39 965070 802618
40 941162 864386
41 990569 909708
42 976891 875953
43 867668 883584
44 991728 968298
45 214510 263269
46 188250 272425
47 173378 218458
48 179125 235129
49 198540 269310
50 240836 238690

EOF
